
Gurobi Optimizer version 7.5.1 build v7.5.1rc0 (linux64)
Copyright (c) 2017, Gurobi Optimization, Inc.

Read LP format model from file all.lp
Reading time = 0.16 seconds
obj: 235 rows, 27255 columns, 54510 nonzeros
Optimize a model with 235 rows, 27255 columns and 54510 nonzeros
Variable types: 0 continuous, 27255 integer (27255 binary)
Coefficient statistics:
  Matrix range     [1e+00, 1e+00]
  Objective range  [6e-05, 1e-01]
  Bounds range     [1e+00, 1e+00]
  RHS range        [5e+00, 5e+00]
Found heuristic solution: objective 17.7088
Presolve time: 0.06s
Presolved: 235 rows, 27255 columns, 54510 nonzeros
Variable types: 0 continuous, 27255 integer (27255 binary)

Starting sifting (using dual simplex for sub-problems)...

    Iter     Pivots    Primal Obj      Dual Obj        Time
       0          0     infinity     -4.3143910e+01      0s
       1        235   5.8120000e+09  -4.0680385e+01      0s
       2        574   4.3120000e+09  -4.0000671e+01      0s
       3        919   2.6740000e+09  -3.9049563e+01      0s
       4       1262   8.9199999e+08  -3.7366892e+01      0s
       5       1797  -1.0162313e+01  -3.6738526e+01      0s
       6       2200  -1.2724971e+01  -3.5492824e+01      0s
       7       2643  -1.2897820e+01  -3.3775038e+01      0s
       8       3078  -1.4275262e+01  -3.2156305e+01      0s
       9       3540  -1.6318760e+01  -2.9793537e+01      0s
      10       3982  -1.7614467e+01  -2.6500770e+01      0s
      11       4450  -1.8931447e+01  -2.3010721e+01      0s
      12       4913  -1.9952984e+01  -2.1326377e+01      0s
      13       5347  -2.0096903e+01  -2.0308002e+01      0s

Sifting complete


Root relaxation: objective 2.010902e+01, 5629 iterations, 0.11 seconds

    Nodes    |    Current Node    |     Objective Bounds      |     Work
 Expl Unexpl |  Obj  Depth IntInf | Incumbent    BestBd   Gap | It/Node Time

     0     0   20.10902    0    6   17.70882   20.10902  13.6%     -    0s
H    0     0                      20.0950405   20.10902  0.07%     -    0s
H    0     0                      20.0991339   20.10902  0.05%     -    0s
H    0     0                      20.1066060   20.10902  0.01%     -    0s
     0     0   20.10669    0   10   20.10661   20.10669  0.00%     -    0s

Cutting planes:
  Clique: 1
  Zero half: 1

Explored 1 nodes (5636 simplex iterations) in 0.44 seconds
Thread count was 16 (of 16 available processors)

Solution count 4: 20.1066 20.0991 20.095 17.7088 

Optimal solution found (tolerance 1.00e-04)
Best objective 2.010660600000e+01, best bound 2.010668700000e+01, gap 0.0004%

Wrote result file 'all.sol'

% Gurobi computed a set of 585 edges and weight 20.106605999999992
1016 1018 0.10004 
1016 1019 0.059324 
1016 1020 0.043203 
1016 1021 0.034462 
1016 1025 0.017518 
1017 1019 0.079412 
1017 1020 0.056497 
1017 1021 0.044417 
1017 1022 0.033732 
1017 1024 0.024753 
1018 1020 0.066006 
1018 1021 0.053509 
1018 1022 0.041359 
1018 1023 0.030974 
1019 1021 0.056994 
1019 1022 0.038536 
1019 1024 0.024529 
1020 1022 0.043746 
1020 1023 0.034579 
1021 1023 0.044944 
1022 1024 0.049661 
1023 1025 0.042457 
1023 1026 0.045118 
1024 1026 0.04235 
1024 1027 0.029609 
1025 1027 0.035879 
1025 1028 0.026769 
1025 1029 0.021167 
1026 1028 0.039654 
1026 1029 0.029167 
1026 1030 0.025524 
1027 1029 0.047129 
1027 1030 0.037849 
1027 1031 0.034521 
1028 1030 0.045421 
1028 1031 0.036663 
1028 1032 0.025694 
1029 1031 0.040831 
1029 1032 0.027148 
1030 1032 0.039674 
1030 1033 0.033119 
1031 1033 0.043558 
1031 1034 0.033826 
1032 1034 0.043787 
1032 1035 0.034054 
1033 1035 0.037568 
1033 1036 0.024493 
1033 1037 0.025959 
1034 1036 0.033469 
1034 1037 0.034715 
1034 1038 0.029432 
1035 1037 0.038604 
1035 1038 0.034025 
1035 1039 0.032648 
1036 1038 0.041134 
1036 1039 0.03313 
1036 1040 0.021041 
1037 1039 0.045675 
1037 1040 0.022296 
1038 1040 0.039738 
1038 1041 0.028455 
1039 1041 0.035902 
1039 1042 0.034519 
1040 1042 0.035258 
1040 1043 0.024936 
1041 1043 0.038873 
1041 1044 0.029639 
1041 1045 0.025099 
1042 1044 0.043376 
1042 1045 0.035847 
1042 1046 0.027172 
1043 1045 0.048405 
1043 1046 0.033618 
1043 1047 0.023339 
1044 1046 0.043336 
1044 1047 0.026994 
1044 1048 0.026496 
1045 1047 0.036899 
1045 1048 0.031214 
1046 1048 0.038085 
1046 1049 0.025769 
1047 1049 0.027893 
1047 1050 0.022236 
1048 1050 0.037897 
1048 1051 0.032498 
1049 1051 0.046441 
1049 1052 0.032965 
1049 1053 0.029065 
1050 1052 0.04194 
1050 1053 0.033645 
1050 1057 0.01543 
1051 1053 0.045601 
1051 1054 0.030466 
1051 1055 0.022649 
1052 1054 0.033509 
1052 1055 0.025986 
1052 1056 0.020879 
1053 1055 0.039263 
1053 1056 0.033549 
1054 1056 0.044562 
1054 1057 0.035242 
1054 1058 0.030745 
1055 1057 0.044928 
1055 1058 0.033332 
1056 1058 0.048672 
1056 1059 0.03311 
1057 1059 0.040876 
1057 1060 0.025837 
1058 1060 0.03319 
1058 1061 0.029189 
1059 1061 0.038863 
1059 1062 0.031421 
1059 1063 0.021396 
1060 1062 0.040703 
1060 1063 0.026431 
1060 1064 0.020328 
1061 1063 0.033448 
1061 1064 0.025843 
1061 1065 0.022934 
1062 1064 0.036702 
1062 1065 0.031697 
1062 1066 0.027688 
1063 1065 0.039431 
1063 1066 0.031932 
1064 1066 0.043623 
1064 1067 0.030033 
1065 1067 0.037919 
1065 1068 0.026707 
1066 1068 0.028537 
1066 1069 0.019791 
1067 1069 0.036096 
1067 1070 0.02795 
1067 1071 0.026407 
1068 1070 0.038123 
1068 1071 0.030834 
1068 1072 0.022846 
1069 1071 0.035974 
1069 1072 0.027098 
1069 1073 0.022024 
1070 1072 0.03611 
1070 1073 0.029653 
1070 1074 0.023283 
1071 1073 0.044456 
1071 1074 0.03144 
1072 1074 0.040236 
1072 1075 0.030498 
1073 1075 0.039491 
1073 1076 0.028391 
1074 1076 0.03628 
1074 1077 0.027933 
1075 1077 0.038617 
1075 1078 0.0339 
1075 1079 0.026716 
1076 1078 0.051111 
1076 1079 0.032217 
1076 1080 0.024359 
1077 1079 0.04159 
1077 1080 0.028713 
1077 1081 0.026407 
1078 1080 0.039682 
1078 1081 0.034756 
1078 1082 0.023654 
1079 1081 0.045629 
1079 1082 0.02812 
1080 1082 0.032503 
1080 1083 0.021078 
1081 1083 0.03239 
1081 1084 0.02175 
1082 1084 0.034694 
1082 1085 0.032037 
1083 1085 0.04729 
1083 1086 0.037866 
1083 1087 0.029456 
1084 1086 0.034408 
1084 1087 0.026587 
1084 1088 0.023276 
1085 1087 0.037534 
1085 1088 0.029771 
1085 1089 0.020855 
1086 1088 0.047953 
1086 1089 0.027122 
1086 1090 0.026178 
1087 1089 0.035996 
1087 1090 0.032877 
1088 1090 0.044867 
1088 1091 0.031719 
1089 1091 0.034156 
1089 1092 0.025746 
1090 1092 0.038147 
1090 1093 0.02866 
1091 1093 0.044233 
1091 1094 0.029849 
1091 1095 0.024935 
1092 1094 0.036052 
1092 1095 0.026168 
1092 1096 0.023187 
1093 1095 0.033173 
1093 1096 0.026486 
1093 1097 0.022391 
1094 1096 0.036594 
1094 1097 0.029541 
1094 1098 0.021097 
1095 1097 0.039972 
1095 1098 0.027863 
1096 1098 0.03866 
1096 1099 0.026008 
1097 1099 0.03704 
1097 1100 0.036744 
1098 1100 0.045104 
1098 1101 0.032055 
1099 1101 0.040891 
1099 1102 0.027293 
1099 1103 0.023364 
1100 1102 0.038422 
1100 1103 0.030729 
1100 1104 0.023782 
1101 1103 0.041307 
1101 1104 0.029319 
1101 1105 0.023857 
1102 1104 0.046111 
1102 1105 0.027563 
1102 1106 0.023713 
1103 1105 0.033137 
1103 1106 0.026247 
1104 1106 0.034901 
1104 1107 0.0307 
1105 1107 0.044379 
1105 1108 0.023916 
1106 1108 0.029566 
1106 1109 0.024235 
1107 1109 0.036352 
1107 1110 0.032829 
1107 1111 0.023396 
1108 1110 0.040327 
1108 1111 0.026833 
1108 1117 0.013875 
1109 1111 0.031869 
1109 1112 0.024087 
1109 1117 0.01387 
1110 1112 0.039688 
1110 1115 0.021785 
1110 1116 0.017901 
1111 1113 0.038911 
1111 1114 0.035534 
1112 1114 0.054266 
1112 1115 0.035438 
1112 1116 0.025478 
1113 1115 0.049664 
1113 1116 0.032092 
1113 1117 0.029772 
1113 1118 0.030114 
1114 1116 0.044451 
1114 1117 0.042997 
1114 1118 0.045873 
1115 1117 0.061909 
1115 1118 0.059097 
1116 1118 0.058627 
1118 1127 0.017371 
1127 1129 0.076403 
1127 1130 0.066364 
1127 1131 0.046466 
1127 1132 0.029316 
1128 1130 0.065516 
1128 1131 0.043743 
1128 1132 0.032034 
1128 1133 0.025443 
1128 1134 0.022247 
1129 1131 0.051062 
1129 1132 0.032854 
1129 1133 0.028185 
1129 1135 0.02241 
1130 1132 0.046344 
1130 1133 0.035823 
1130 1135 0.033957 
1131 1133 0.055662 
1131 1134 0.04694 
1132 1134 0.04449 
1133 1135 0.036499 
1134 1136 0.038172 
1134 1137 0.028595 
1135 1137 0.044992 
1135 1138 0.03476 
1136 1138 0.048419 
1136 1139 0.032355 
1136 1140 0.026653 
1136 1143 0.016215 
1137 1139 0.039034 
1137 1140 0.029386 
1137 1141 0.022929 
1138 1140 0.039519 
1138 1141 0.028862 
1138 1142 0.02428 
1139 1141 0.048525 
1139 1142 0.035335 
1139 1143 0.029107 
1140 1142 0.043446 
1140 1143 0.031008 
1141 1143 0.03766 
1141 1144 0.02646 
1142 1144 0.036878 
1142 1145 0.023323 
1143 1145 0.031655 
1144 1146 0.037925 
1144 1147 0.031225 
1144 1148 0.023785 
1145 1147 0.045946 
1145 1148 0.033027 
1145 1149 0.027612 
1146 1148 0.042058 
1146 1149 0.03175 
1146 1150 0.025075 
1146 1152 0.018349 
1147 1149 0.038891 
1147 1150 0.028233 
1147 1151 0.030674 
1148 1150 0.036278 
1148 1151 0.030004 
1149 1151 0.043623 
1149 1152 0.023594 
1150 1152 0.031142 
1150 1153 0.026484 
1151 1153 0.031179 
1151 1154 0.029321 
1152 1154 0.032155 
1152 1155 0.022968 
1153 1155 0.037253 
1153 1156 0.028484 
1153 1157 0.024922 
1154 1156 0.043697 
1154 1157 0.033796 
1154 1158 0.030604 
1155 1157 0.046492 
1155 1158 0.034505 
1155 1159 0.026855 
1156 1158 0.042091 
1156 1159 0.030781 
1156 1160 0.023552 
1157 1159 0.045917 
1157 1160 0.031047 
1158 1160 0.048689 
1158 1161 0.033128 
1159 1161 0.046706 
1159 1162 0.027651 
1160 1162 0.037105 
1160 1163 0.027113 
1161 1163 0.036222 
1161 1164 0.027919 
1161 1165 0.027027 
1162 1164 0.034601 
1162 1165 0.030999 
1162 1166 0.023458 
1163 1165 0.041328 
1163 1166 0.029633 
1163 1167 0.023802 
1164 1166 0.036092 
1164 1167 0.026318 
1164 1168 0.022009 
1165 1167 0.033163 
1165 1168 0.026936 
1166 1168 0.031793 
1166 1169 0.029336 
1167 1169 0.042364 
1167 1170 0.026442 
1168 1170 0.037245 
1168 1171 0.025969 
1169 1171 0.034438 
1169 1172 0.027344 
1169 1173 0.031059 
1170 1172 0.037406 
1170 1173 0.03469 
1170 1174 0.025091 
1171 1173 0.036287 
1171 1174 0.024979 
1171 1175 0.021729 
1172 1174 0.032892 
1172 1175 0.026325 
1172 1176 0.020464 
1173 1175 0.044126 
1173 1176 0.027629 
1174 1176 0.037683 
1174 1177 0.030257 
1175 1177 0.042574 
1175 1178 0.033686 
1176 1178 0.040149 
1176 1179 0.026856 
1177 1179 0.039074 
1177 1180 0.024449 
1177 1181 0.022572 
1178 1180 0.035818 
1178 1181 0.03118 
1178 1182 0.030544 
1179 1181 0.041389 
1179 1182 0.030822 
1179 1184 0.015886 
1180 1182 0.034057 
1180 1183 0.022596 
1180 1185 0.016044 
1181 1183 0.029445 
1181 1184 0.021035 
1182 1184 0.03232 
1182 1185 0.027214 
1183 1185 0.041072 
1183 1186 0.033336 
1183 1187 0.025557 
1184 1186 0.040495 
1184 1187 0.027414 
1185 1187 0.035081 
1185 1188 0.024521 
1186 1188 0.034558 
1186 1189 0.029259 
1186 1190 0.025821 
1187 1189 0.044019 
1187 1190 0.034158 
1188 1190 0.04402 
1188 1191 0.02909 
1188 1192 0.026446 
1189 1191 0.038578 
1189 1192 0.031523 
1189 1193 0.026729 
1190 1192 0.038694 
1190 1193 0.029556 
1191 1193 0.041511 
1191 1194 0.02822 
1191 1195 0.023795 
1192 1194 0.040398 
1192 1195 0.030366 
1193 1195 0.038672 
1193 1196 0.02713 
1194 1196 0.041011 
1194 1197 0.030904 
1194 1199 0.018642 
1195 1197 0.037725 
1195 1198 0.025867 
1196 1198 0.036631 
1196 1199 0.024121 
1196 1200 0.022244 
1197 1199 0.032841 
1197 1200 0.029265 
1197 1201 0.031084 
1198 1200 0.035926 
1198 1201 0.033145 
1198 1202 0.024093 
1199 1201 0.039146 
1199 1202 0.027086 
1200 1202 0.035715 
1200 1203 0.026761 
1201 1203 0.043901 
1201 1204 0.037365 
1202 1204 0.05198 
1202 1205 0.031343 
1203 1205 0.042707 
1203 1206 0.028383 
1203 1207 0.028339 
1204 1206 0.035934 
1204 1207 0.04126 
1204 1208 0.032438 
1205 1207 0.051352 
1205 1208 0.037965 
1205 1209 0.0292 
1206 1208 0.040982 
1206 1209 0.030245 
1206 1210 0.021289 
1207 1209 0.043776 
1207 1210 0.029665 
1208 1210 0.045163 
1208 1211 0.026243 
1209 1211 0.037415 
1209 1212 0.026637 
1210 1212 0.036678 
1210 1213 0.029191 
1211 1213 0.036373 
1211 1214 0.031522 
1211 1215 0.028215 
1212 1214 0.037459 
1212 1215 0.030746 
1212 1219 0.016798 
1213 1215 0.03635 
1213 1216 0.029311 
1213 1217 0.023772 
1214 1216 0.036592 
1214 1217 0.027641 
1214 1218 0.022537 
1215 1217 0.037432 
1215 1218 0.030492 
1216 1218 0.036556 
1216 1219 0.032285 
1216 1220 0.028397 
1217 1219 0.033565 
1217 1220 0.027883 
1218 1220 0.035909 
1218 1221 0.026798 
1219 1221 0.043002 
1219 1222 0.031243 
1220 1222 0.039619 
1220 1223 0.027627 
1221 1223 0.036556 
1221 1224 0.029586 
1221 1225 0.020906 
1222 1224 0.044761 
1222 1225 0.029328 
1222 1226 0.026823 
1223 1225 0.036385 
1223 1226 0.033133 
1223 1227 0.026192 
1224 1226 0.041105 
1224 1227 0.033249 
1224 1228 0.028553 
1225 1227 0.051318 
1225 1228 0.035507 
1226 1228 0.04767 
1226 1229 0.034446 
1227 1229 0.045266 
1227 1230 0.031659 
1228 1230 0.040437 
1228 1231 0.027596 
1229 1231 0.0365 
1229 1232 0.028382 
1229 1233 0.024613 
1230 1232 0.039939 
1230 1233 0.030768 
1230 1234 0.03138 
1231 1233 0.047657 
1231 1234 0.040607 
1231 1235 0.035536 
1232 1234 0.047226 
1232 1235 0.035088 
1232 1236 0.026427 
1233 1235 0.038791 
1233 1236 0.02957 
1234 1236 0.040605 
1234 1237 0.029802 
1235 1237 0.048121 
1235 1238 0.026197 
1236 1238 0.035184 
1236 1239 0.030052 
1237 1239 0.041402 
1237 1240 0.028829 
1237 1241 0.025253 
1238 1240 0.041138 
1238 1241 0.031848 
1238 1242 0.025128 
1239 1241 0.048182 
1239 1242 0.034401 
1239 1243 0.030938 
1240 1242 0.045151 
1240 1243 0.035795 
1240 1244 0.027225 
1241 1243 0.048158 
1241 1244 0.03389 
1242 1244 0.043334 
1242 1245 0.031884 
1243 1245 0.039558 
1243 1246 0.029472 
1244 1246 0.036948 
1244 1247 0.033709 
1245 1247 0.043189 
1245 1248 0.03586 
1245 1249 0.028603 
1246 1248 0.050754 
1246 1249 0.037594 
1246 1250 0.030479 
1247 1249 0.05164 
1247 1250 0.039379 
1247 1256 0.020919 
1248 1250 0.049364 
1248 1251 0.035166 
1248 1253 0.029843 
1249 1251 0.045977 
1249 1252 0.03813 
1250 1252 0.048161 
1250 1253 0.040246 
1251 1253 0.051862 
1251 1254 0.044457 
1251 1255 0.038639 
1252 1254 0.055316 
1252 1255 0.044185 
1252 1256 0.036339 
1253 1255 0.068252 
1253 1256 0.054999 
1254 1256 0.099962 
1254 1257 0.024924 
1254 1258 0.032253 
1255 1257 0.042697 
1255 1258 0.047679 
1256 1258 0.067153 
